\ENCODING=ISO-8859-1
\Problem name: IloCplex

Minimize
 obj: x_0_1 + 2.2360680103302 x_0_2 + 2.2360680103302 x_0_3 + 2 x_0_4 + x_1_0
      + 2.2360680103302 x_2_0 + 2.2360680103302 x_3_0 + 2 x_4_0
      + 1.41421353816986 x_2_1 + 2 x_3_1 + 2.2360680103302 x_4_1
      + 1.41421353816986 x_1_2 + 1.41421353816986 x_3_2 + 2.2360680103302 x_4_2
      + 2 x_1_3 + 1.41421353816986 x_2_3 + x_4_3 + 2.2360680103302 x_1_4
      + 2.2360680103302 x_2_4 + x_3_4
Subject To
 (1):   x_0_1 + x_0_2 + x_0_3 + x_0_4 <= 1
 (2):   x_1_0 + x_2_0 + x_3_0 + x_4_0 <= 1
 (4_4): x_0_1 + x_2_1 + x_3_1 + x_4_1  = 1
 c4:    x_0_2 + x_1_2 + x_3_2 + x_4_2  = 1
 c5:    x_0_3 + x_1_3 + x_2_3 + x_4_3  = 1
 c6:    x_0_4 + x_1_4 + x_2_4 + x_3_4  = 1
 (3_1): x_1_0 + x_1_2 + x_1_3 + x_1_4  = 1
 (3_2): x_2_0 + x_2_1 + x_2_3 + x_2_4  = 1
 (3_3): x_3_0 + x_3_1 + x_3_2 + x_3_4  = 1
 (3_4): x_4_0 + x_4_1 + x_4_2 + x_4_3  = 1
Bounds
 0 <= x_0_1 <= 1
 0 <= x_0_2 <= 1
 0 <= x_0_3 <= 1
 0 <= x_0_4 <= 1
 0 <= x_1_0 <= 1
 0 <= x_2_0 <= 1
 0 <= x_3_0 <= 1
 0 <= x_4_0 <= 1
 0 <= x_2_1 <= 1
 0 <= x_3_1 <= 1
 0 <= x_4_1 <= 1
 0 <= x_1_2 <= 1
 0 <= x_3_2 <= 1
 0 <= x_4_2 <= 1
 0 <= x_1_3 <= 1
 0 <= x_2_3 <= 1
 0 <= x_4_3 <= 1
 0 <= x_1_4 <= 1
 0 <= x_2_4 <= 1
 0 <= x_3_4 <= 1
Binaries
 x_0_1  x_0_2  x_0_3  x_0_4  x_1_0  x_2_0  x_3_0  x_4_0  x_2_1  x_3_1  x_4_1 
 x_1_2  x_3_2  x_4_2  x_1_3  x_2_3  x_4_3  x_1_4  x_2_4  x_3_4 
End
